c --- [ banner ] -------------------------------------------------------------
c 
c CaDiCaL Radically Simplified CDCL SAT Solver
c Copyright (c) 2016-2021 A. Biere, M. Fleury, N. Froleyks
c 
c Version 1.5.2 a5f15211db36c3956764e18194dd5bd63bf3b5e6
c g++ (GCC) 9.3.0 -Wall -Wextra -O3 -DNDEBUG
c Fri Oct 21 01:27:37 EDT 2022 Linux gra-login3 3.10.0-1160.66.1.el7.x86_64 x86_64
c 
c --- [ limit ] --------------------------------------------------------------
c 
c setting conflict limit to 200000 conflicts (due to '200000')
c 
c --- [ parsing input ] ------------------------------------------------------
c 
c reading DIMACS file from '33.cubes2285.adj'
c opening file to read '33.cubes2285.adj'
c found 'p cnf 6160 1595477' header
c parsed 1595477 clauses in 20.40 seconds process time
c closing file '33.cubes2285.adj'
c after reading 1457566788 bytes 1390.0 MB
c 
c --- [ options ] ------------------------------------------------------------
c 
c all options are set to their default value
c 
c --- [ solving ] ------------------------------------------------------------
c 
c time measured in process time since initialization
c 
c  seconds    reductions  redundant   irredundant
c          MB     restarts       trail       variables
c            level   conflicts       glue         remaining
c 
c * 20.40 1377  0 0   0    0    0  0% 0 1595422 2449 40%
c { 21.06 1416  0 0   0    0    0  0% 0 1595422 2449 40%
c i 24.25 1507 939 0   4   58   46 38% 13 1595422 2448 40%
c i 24.29 1508 883 0   5   61   48 36% 13 1595422 2447 40%
c i 24.35 1508 866 0   6   62   48 36% 12 1595422 2435 40%
c i 24.43 1508 692 0   6   75   52 33% 11 1595422 2428 39%
c i 25.05 1512 386 0   9  129   78 28% 12 1595422 2410 39%
c i 25.52 1514 356 0  13  144   92 28% 18 1595422 2405 39%
c i 25.56 1515 352 0  14  148   92 28% 17 1595422 2401 39%
c i 25.67 1515 347 0  15  155   96 28% 18 1595422 2400 39%
c i 25.74 1515 337 0  17  160  100 28% 17 1595422 2399 39%
c i 26.01 1516 306 0  22  182  120 28% 25 1595422 2398 39%
c - 31.16 1460 194 1  37  300  195 28% 25 309025 2398 39%
c i 31.36 1460 183 1  37  322  209 29% 25 309025 2397 39%
c i 31.46 1460 172 1  37  344  224 29% 24 309025 2396 39%
c i 31.47 1460 170 1  37  349  228 29% 24 309025 2395 39%
c i 31.50 1460 166 1  37  358  235 29% 24 309025 2394 39%
c i 31.58 1460 144 1  37  421  264 29% 23 309025 2351 38%
c i 31.60 1460 142 1  37  429  270 29% 23 309025 2345 38%
c i 31.71 1460 107 1  37  589  352 30% 21 309025 2343 38%
c 
c  seconds    reductions  redundant   irredundant
c          MB     restarts       trail       variables
c            level   conflicts       glue         remaining
c 
c i 31.81 1460 95 1  37  690  418 30% 20 309025 2342 38%
c i 31.88 1460 90 1  37  748  451 30% 20 309025 2341 38%
c i 32.59 1460 92 1  47  794  492 30% 23 309025 2340 38%
c i 32.75 1460 91 1  52  815  510 30% 23 309025 2339 38%
c i 33.02 1460 90 1  57  839  529 30% 23 309025 2338 38%
c i 33.04 1460 90 1  58  840  529 30% 23 309025 2337 38%
c i 33.26 1460 92 1  62  875  549 30% 25 309025 2331 38%
c i 33.30 1460 92 1  64  883  553 30% 25 309025 2327 38%
c } 33.98 1460 89 1  90 1001  628 29% 26 309025 2327 38%
c [ 33.98 1460  0 1  90 1001  628  0% 0 309025 2327 38%
c O 33.98 1461  1 1  90 1002  628 11% 0 309025 2327 38%
c i 33.98 1461  1 1  90 1002  628 11% 0 309025 2314 38%
c i 34.08 1461  7 1  90 1013  633 20% 6 309025 2313 38%
c - 34.89 1475 21 2  90 1194  670 33% 19 258224 2313 38%
c i 35.02 1475 21 2  90 1208  676 33% 19 258224 2312 38%
c i 35.14 1475 22 2  90 1454  818 33% 19 258224 2311 38%
c i 35.15 1475 22 2  90 1486  837 33% 19 258224 2310 38%
c i 35.20 1475 22 2  90 1621  926 33% 19 258224 2309 37%
c i 35.20 1475 22 2  90 1632  929 33% 19 258224 2308 37%
c i 35.20 1475 22 2  90 1647  936 33% 19 258224 2307 37%
c 
c  seconds    reductions  redundant   irredundant
c          MB     restarts       trail       variables
c            level   conflicts       glue         remaining
c 
c i 35.21 1475 22 2  90 1697  965 33% 19 258224 2306 37%
c i 35.23 1475 22 2  90 1768 1007 33% 19 258224 2305 37%
c i 35.27 1475 21 2  90 1846 1051 33% 18 258224 2304 37%
c i 35.29 1475 21 2  90 1852 1055 33% 18 258224 2303 37%
c i 35.30 1475 21 2  90 1866 1064 33% 18 258224 2302 37%
c i 35.35 1475 22 2  90 2030 1178 32% 19 258224 2301 37%
c i 35.36 1475 22 2  91 2046 1187 32% 19 258224 2300 37%
c i 35.37 1475 22 2  91 2081 1208 32% 19 258224 2299 37%
c i 35.40 1475 22 2  91 2199 1288 32% 19 258224 2298 37%
c i 35.45 1475 22 2  91 2403 1402 32% 19 258224 2297 37%
c ] 35.46 1475 22 2  91 2438 1420 32% 19 258224 2297 37%
c 1 35.46 1475 22 2  91 2438 1420 32% 19 258224 2297 37%
c 
c --- [ writing output ] -----------------------------------------------------
c 
c writing simplified CNF to DIMACS file 'simp/33.cubes2285.adj.simp1'
c * 35.46 1475 22 2  91 2438 1420 32% 19 258224 2297 37%
c opening file to write 'simp/33.cubes2285.adj.simp1'
c writing 'p cnf 6160 258176' header
c closing file 'simp/33.cubes2285.adj.simp1'
c after writing 135382115 bytes 129.1 MB
c wrote 258176 clauses in 1.02 seconds process time
c 
c --- [ writing extension ] --------------------------------------------------
c 
c writing extension stack to 'simp/33.cubes2285.adj.ext1'
c opening file to write 'simp/33.cubes2285.adj.ext1'
c closing file 'simp/33.cubes2285.adj.ext1'
c after writing 10532 bytes 0.0 MB
c wrote 719 witnesses in 0.00 seconds process time
c 
c --- [ result ] -------------------------------------------------------------
c 
s SATISFIABLE
c 
c --- [ run-time profiling ] -------------------------------------------------
c 
c process time taken by individual solving procedures
c (percentage relative to process time for solving)
c 
c        20.40  135.41% parse
c        15.06  100.00% search
c        12.92   85.78% unstable
c         1.48    9.82% stable
c         0.66    4.40% lucky
c         0.00    0.00% simplify
c   =================================
c        15.06   41.29% solve
c 
c last line shows process time for solving
c (percentage relative to total process time)
c 
c --- [ statistics ] ---------------------------------------------------------
c 
c chronological:               558        22.89 %  of conflicts
c conflicts:                  2438       161.84    per second
c decisions:                 17641      1171.08    per second
c fixed:                       719        11.67 %  of all variables
c learned:                    2383        97.74 %  per conflict
c learned_lits:             513370       100.00 %  learned literals
c minimized:                     0         0.00 %  learned literals
c shrunken:                 340125        66.25 %  learned literals
c minishrunken:              38418         7.48 %  learned literals
c propagations:             372537         0.02 M  per second
c reduced:                      81         3.32 %  per conflict
c rephased:                      1      2438.00    interval
c restarts:                     91        26.79    interval
c stabilizing:                   1        58.94 %  of conflicts
c subsumed:                    820         0.03 %  of all clauses
c 
c seconds are measured in process time for solving
c 
c --- [ resources ] ----------------------------------------------------------
c 
c total process time since initialization:        36.48    seconds
c total real time since initialization:           36.92    seconds
c maximum resident set size of process:         1579.39    MB
c 
c --- [ shutting down ] ------------------------------------------------------
c 
c exit 10
WARNING! DIMACS header mismatch: wrong number of variables.
============================[ Problem Statistics ]=============================
|                                                                             |
|  Number of variables:          6120                                         |
|  Number of clauses:          258176                                         |
|  Parse time:                   1.79 s                                       |
|  Simplification time:          0.03 s                                       |
|                                                                             |
============================[ Search Statistics ]====================================================
| Conflicts |          ORIGINAL         |          LEARNT          | Num Sols |      SUBGRAPHS      |
|           |    Vars  Clauses Literals |    Limit  Clauses Lit/Cl |          | Canonical Noncanon. |
=====================================================================================================
|       100 |    6028   258176 29140443 |     2000      100      7 |        0 |        24         0 |
|       268 |    6026   258194 29140737 |     2000      266     90 |        0 |        34        18 |
|       543 |    6021   258244 29141361 |     2000      536     81 |        0 |        54        68 |
|       891 |    6019   258255 29141442 |     2000      882    101 |        0 |        62        79 |
|      1453 |    6015   258311 29143004 |     2000     1440    105 |        0 |        92       135 |
|      2312 |    5969   258411 29144092 |     3579     1287     57 |        0 |       123       235 |
|      3770 |    5894   258730 29147723 |     3579     2740     66 |        0 |       153       554 |
|      5878 |    5891   259130 29152140 |     4986     3061     41 |        0 |       193       954 |
=====================================================================================================
Number of solutions   : 0
Canonical subgraphs   : 213            (53 /sec)
          order  3    : 1              (166667 /sec)
          order  4    : 1              (1000000 /sec)
          order  5    : 1              (250000 /sec)
          order  6    : 1              (55556 /sec)
          order  7    : 1              (8000 /sec)
          order  8    : 2              (1357 /sec)
          order  9    : 4              (255 /sec)
          order 10    : 12             (148 /sec)
          order 11    : 26             (87 /sec)
          order 12    : 31             (145 /sec)
          order 13    : 38             (97 /sec)
          order 14    : 15             (78 /sec)
          order 15    : 33             (48 /sec)
          order 16    : 23             (35 /sec)
          order 17    : 7              (24 /sec)
          order 18    : 10             (17 /sec)
          order 19    : 6              (12 /sec)
          order 20    : 1              (12 /sec)
          order 21    : 0              (-nan /sec)
          order 22    : 0              (-nan /sec)
Noncanonical subgraphs: 1206           (339 /sec)
          order  3    : 0              (-nan /sec)
          order  4    : 0              (-nan /sec)
          order  5    : 0              (-nan /sec)
          order  6    : 0              (-nan /sec)
          order  7    : 0              (-nan /sec)
          order  8    : 0              (-nan /sec)
          order  9    : 0              (-nan /sec)
          order 10    : 0              (-nan /sec)
          order 11    : 0              (-nan /sec)
          order 12    : 0              (-nan /sec)
          order 13    : 149            (18792 /sec)
          order 14    : 142            (18325 /sec)
          order 15    : 321            (2541 /sec)
          order 16    : 127            (1020 /sec)
          order 17    : 84             (1013 /sec)
          order 18    : 292            (139 /sec)
          order 19    : 91             (81 /sec)
          order 20    : 0              (-nan /sec)
          order 21    : 0              (-nan /sec)
Canonicity checking   : 4.0232 s
Noncanonicity checking: 3.56189 s
Total canonicity time : 7.58509 s
database reductions   : 2
restarts              : 31
conflicts             : 7008           (499 /sec)
decisions             : 36580          (0.00 % random) (2605 /sec)
propagations          : 802314         (57133 /sec)
conflict literals     : 583140         (46.72 % deleted)
actual reward         : 0.109836
Memory used           : 147.00 MB
CPU time              : 14.043 s

UNSATISFIABLE
